;test regex ^\s*(http[s]*\:\/\/)?([wwW]{3}\.)+[a-zA-Z0-9]+\.[a-zA-Z]{2,3}.*$|^http[s]*\:\/\/[^w]{3}[a-zA-Z0-9]+\.[a-zA-Z]{2,3}.*$|http[s]*\:\/\/[0-9]{2,3}\.[0-9]{2,3}\.[0-9]{2,3}\.[0-9]{2,3}.*$
(declare-const X String)
(assert (str.in_re X (re.union (re.union (re.++ (re.++ (str.to_re "") (re.++ (re.* (re.union (str.to_re " ") (re.union (str.to_re "\u{0b}") (re.union (str.to_re "\u{0a}") (re.union (str.to_re "\u{0d}") (re.union (str.to_re "\u{09}") (str.to_re "\u{0c}"))))))) (re.++ (re.opt (re.++ (str.to_re "h") (re.++ (str.to_re "t") (re.++ (str.to_re "t") (re.++ (str.to_re "p") (re.++ (re.* (str.to_re "s")) (re.++ (str.to_re ":") (re.++ (str.to_re "/") (str.to_re "/"))))))))) (re.++ (re.+ (re.++ ((_ re.loop 3 3) (re.union (str.to_re "w") (re.union (str.to_re "w") (str.to_re "W")))) (str.to_re "."))) (re.++ (re.+ (re.union (re.range "a" "z") (re.union (re.range "A" "Z") (re.range "0" "9")))) (re.++ (str.to_re ".") (re.++ ((_ re.loop 2 3) (re.union (re.range "a" "z") (re.range "A" "Z"))) (re.* (re.diff re.allchar (str.to_re "\n")))))))))) (str.to_re "")) (re.++ (re.++ (str.to_re "") (re.++ (str.to_re "h") (re.++ (str.to_re "t") (re.++ (str.to_re "t") (re.++ (str.to_re "p") (re.++ (re.* (str.to_re "s")) (re.++ (str.to_re ":") (re.++ (str.to_re "/") (re.++ (str.to_re "/") (re.++ ((_ re.loop 3 3) (re.diff re.allchar (str.to_re "w"))) (re.++ (re.+ (re.union (re.range "a" "z") (re.union (re.range "A" "Z") (re.range "0" "9")))) (re.++ (str.to_re ".") (re.++ ((_ re.loop 2 3) (re.union (re.range "a" "z") (re.range "A" "Z"))) (re.* (re.diff re.allchar (str.to_re "\n")))))))))))))))) (str.to_re ""))) (re.++ (re.++ (str.to_re "h") (re.++ (str.to_re "t") (re.++ (str.to_re "t") (re.++ (str.to_re "p") (re.++ (re.* (str.to_re "s")) (re.++ (str.to_re ":") (re.++ (str.to_re "/") (re.++ (str.to_re "/") (re.++ ((_ re.loop 2 3) (re.range "0" "9")) (re.++ (str.to_re ".") (re.++ ((_ re.loop 2 3) (re.range "0" "9")) (re.++ (str.to_re ".") (re.++ ((_ re.loop 2 3) (re.range "0" "9")) (re.++ (str.to_re ".") (re.++ ((_ re.loop 2 3) (re.range "0" "9")) (re.* (re.diff re.allchar (str.to_re "\n")))))))))))))))))) (str.to_re "")))))
; sanitize danger characters:  < > ' " &
(assert (not (str.in_re X (re.++ re.all (re.union (str.to_re "\u{3c}") (str.to_re "\u{3e}") (str.to_re "\u{27}") (str.to_re "\u{22}") (str.to_re "\u{26}")) re.all))))
(assert (< 20 (str.len X)))
(check-sat)
(get-model)